
Gurobi 11.0.3 (linux64) logging started Thu Nov 21 23:06:40 2024

Set parameter LogFile to value "/home/yihong/Coding/OR_SUC/SUC_results_bigM100000_thread4/case24_ieee_rts_theta0.5_epsilon0.05_gurobi_seed910000_num_gen100_N_WDR100_load_scaling_factor1_exact_T8quadra_cost.txt"
Set parameter TimeLimit to value 3600
Gurobi Optimizer version 11.0.3 build v11.0.3rc0 (linux64 - "Ubuntu 20.04.6 LTS")

CPU model: AMD EPYC 7532 32-Core Processor, instruction set [SSE2|AVX|AVX2]
Thread count: 64 physical cores, 128 logical processors, using up to 4 threads

Optimize a model with 18955 rows, 10121 columns and 440954 nonzeros
Model fingerprint: 0x296c6917
Model has 800 quadratic constraints
Variable types: 9221 continuous, 900 integer (900 binary)
Coefficient statistics:
  Matrix range     [3e-04, 1e+05]
  QMatrix range    [2e-03, 8e-03]
  QLMatrix range   [4e-01, 6e+01]
  Objective range  [1e+00, 1e+00]
  Bounds range     [1e+00, 1e+00]
  RHS range        [1e+00, 1e+05]
Presolve removed 15500 rows and 4370 columns
Presolve time: 0.13s
Presolved: 3455 rows, 5751 columns, 19817 nonzeros
Presolved model has 800 quadratic constraint(s)
Variable types: 4885 continuous, 866 integer (866 binary)

Root relaxation: objective 1.486904e+04, 2663 iterations, 0.04 seconds (0.06 work units)

    Nodes    |    Current Node    |     Objective Bounds      |     Work
 Expl Unexpl |  Obj  Depth IntInf | Incumbent    BestBd   Gap | It/Node Time

     0     0 14869.0355    0   18          - 14869.0355      -     -    0s
     0     0 148412.193    0  214          - 148412.193      -     -    0s
     0     0 148652.880    0  204          - 148652.880      -     -    0s
     0     0 249081.380    0   97          - 249081.380      -     -    0s
     0     0 249093.150    0  102          - 249093.150      -     -    0s
     0     0 249152.166    0   64          - 249152.166      -     -    0s
     0     0 249152.263    0   64          - 249152.263      -     -    0s
     0     0 249152.573    0   64          - 249152.573      -     -    0s
     0     0 249152.889    0   64          - 249152.889      -     -    0s
     0     2 249152.889    0   64          - 249152.889      -     -    1s
H  106   115                    249305.33234 249152.921  0.06%   8.9    1s
*  106   115              28    249305.33234 249152.921  0.06%   8.9    1s
H  113   115                    249201.54576 249152.921  0.02%   8.7    1s
*  113   115              31    249201.54576 249152.921  0.02%   8.9    1s

Cutting planes:
  Gomory: 40
  Implied bound: 216
  MIR: 65
  Flow cover: 103
  RLT: 10

Explored 127 nodes (8167 simplex iterations) in 1.70 seconds (1.77 work units)
Thread count was 4 (of 128 available processors)

Solution count 3: 249202 249202 249305 

Optimal solution found (tolerance 1.00e-03)
Warning: max constraint violation (2.3942e-08) exceeds tolerance
Best objective 2.492015457579e+05, best bound 2.491529213582e+05, gap 0.0195%
